[VALIDATOR STDOUT]
Checking plan: /home/jfan5/Safety-gen/runs/benchmark/optic/delivery_20260129_163024/delivery/optic_results/delivery_size8_packages1_seed8001.plan
Plan executed successfully - checking goal
Plan valid
Final value: 29 

Successful plans:
Value: 29
 /home/jfan5/Safety-gen/runs/benchmark/optic/delivery_20260129_163024/delivery/optic_results/delivery_size8_packages1_seed8001.plan 29
